
--- Job Untitled_2.gms Start 01/23/22 16:16:14 37.1.0 r07954d5 WEX-WEI x86 64bit/MS Windows
--- Applying:
    C:\GAMS\37\gmsprmNT.txt
--- GAMS Parameters defined
    Input C:\projects\OptimizationModels\GraphColoring\Untitled_2.gms
    PageWidth 140
    PageSize 0
    PageContr 3
    Action CE
    ScrDir C:\projects\OptimizationModels\GraphColoring\225b\
    SysDir C:\GAMS\37\
    WorkDir C:\projects\OptimizationModels\GraphColoring\
    LogOption 3
    DFormat 0
    TFormat 0
    ErrorLog 99
    IDE 1
    GDX C:\projects\OptimizationModels\GraphColoring\x.gdx
Licensee: Eval License                                   G211206|0002CO-GEN
          Amsterdam Optimization Modeling Group,                     DCE378
          C:\GAMS\37\gamslice.txt
          License Admin: Erwin Kalvelagen, info@amsterdamoptimization.com  
          Evaluation license: Not for commercial or production use
Processor information: 1 socket(s), 8 core(s), and 16 thread(s) available
GAMS 37.1.0   Copyright (C) 1987-2021 GAMS Development. All rights reserved
--- Starting compilation
--- Untitled_2.gms(22) 3 Mb
--- . data.inc(6188) 4 Mb
--- Untitled_2.gms(86) 4 Mb
--- Starting execution: elapsed 0:00:00.077
--- Untitled_2.gms(6265) 5 Mb
--- Generating MIP model color
--- Untitled_2.gms(6266) 31 Mb
---   60,090 rows  19,333 columns  189,937 non-zeroes
---   19,332 discrete-columns
--- Executing CPLEX (Solvelink=2): elapsed 0:00:00.171

IBM ILOG CPLEX   37.1.0 r07954d5 Released Nov 11, 2021 WEI x86 64bit/MS Window

--- GAMS/Cplex Link licensed for continuous and discrete problems.
--- GMO setup time: 0.00s
--- Space for names approximately 2.61 Mb
--- Use option 'names no' to turn use of names off
--- GMO memory 17.93 Mb (peak 18.08 Mb)
--- Dictionary memory 0.00 Mb
--- Cplex 20.1.0.1 link memory 1.06 Mb (peak 6.28 Mb)
--- Starting Cplex

Version identifier: 20.1.0.1 | 2021-04-07 | 3a818710c
CPXPARAM_Advance                                 0
CPXPARAM_Threads                                 16
CPXPARAM_Parallel                                1
CPXPARAM_MIP_Display                             4
CPXPARAM_MIP_Pool_Capacity                       0
CPXPARAM_MIP_Tolerances_AbsMIPGap                0
CPXPARAM_MIP_Tolerances_MIPGap                   0
Generic callback                                 0x50
Tried aggregator 1 time.
MIP Presolve eliminated 34047 rows and 19 columns.
MIP Presolve modified 22692 coefficients.
Reduced MIP has 26042 rows, 19314 columns, and 111798 nonzeros.
Reduced MIP has 19314 binaries, 0 generals, 0 SOSs, and 0 indicators.
Presolve time = 5.92 sec. (5419.24 ticks)
Found incumbent of value 6.000000 after 6.05 sec. (5544.64 ticks)
Probing time = 0.02 sec. (2.19 ticks)
Tried aggregator 1 time.
Detecting symmetries...
Reduced MIP has 26042 rows, 19314 columns, and 111798 nonzeros.
Reduced MIP has 19314 binaries, 0 generals, 0 SOSs, and 0 indicators.
Presolve time = 0.28 sec. (333.54 ticks)
Probing time = 0.01 sec. (2.47 ticks)
Clique table members: 26042.
MIP emphasis: balance optimality and feasibility.
MIP search method: dynamic search.
Parallel mode: deterministic, using up to 16 threads.
Parallel mode: deterministic, using up to 3 threads for parallel tasks at root LP.
Parallel mode: deterministic, using up to 13 threads for concurrent optimization:
 * Starting dual Simplex on 1 thread...
 * Starting Barrier on 11 threads...
 * Starting primal Simplex on 1 thread...
Tried aggregator 1 time.
No LP presolve or aggregator reductions.
Presolve time = 0.02 sec. (14.95 ticks)
Initializing dual steep norms . . .

Iteration log . . .
Iteration:     1   Dual objective     =             0.000000
Perturbation started.
Iteration:   101   Dual objective     =             0.000000
Iteration:   719   Dual objective     =             0.000217
Iteration:  1522   Dual objective     =             0.000409
Iteration:  2044   Dual objective     =             0.000518
Iteration:  2439   Dual objective     =             0.000605
Iteration:  2871   Dual objective     =             0.000698
Iteration:  3205   Dual objective     =             0.000780
Iteration:  3666   Dual objective     =             0.000883
Iteration:  4040   Dual objective     =             4.000314
Iteration:  4358   Dual objective     =             4.000340
Iteration:  4809   Dual objective     =             4.000380
Iteration:  5358   Dual objective     =             4.000413
Iteration:  5816   Dual objective     =             4.000439
Removing perturbation.

Barrier solved model.

Root relaxation solution time = 0.91 sec. (1121.38 ticks)

        Nodes                                         Cuts/
   Node  Left     Objective  IInf  Best Integer    Best Bound    ItCnt     Gap

*     0+    0                            6.0000        0.0000           100.00%
Found incumbent of value 6.000000 after 7.33 sec. (7045.93 ticks)
      0     0        4.0000 13544        6.0000        4.0000        0   33.33%
      0     0        4.0000 11520        6.0000     Cuts: 980   155119   33.33%
      0     0        4.0000  5886        6.0000     Cuts: 120   169705   33.33%
      0     0        4.0000  4259        6.0000      Cuts: 88   175330   33.33%
      0     0        4.0000  4667        6.0000     Cuts: 879   195700   33.33%
      0     0        4.0000  3306        6.0000      Cuts: 40   198714   33.33%
      0     0        4.0000  3926        6.0000     Cuts: 578   212671   33.33%
*     0+    0                            5.0000        4.0000            20.00%
Found incumbent of value 5.000000 after 297.50 sec. (377635.07 ticks)

Repeating presolve.
Tried aggregator 2 times.
MIP Presolve eliminated 7661 rows and 6480 columns.
MIP Presolve modified 27 coefficients.
Aggregator did 3 substitutions.
Reduced MIP has 18378 rows, 12831 columns, and 59143 nonzeros.
Reduced MIP has 12831 binaries, 0 generals, 0 SOSs, and 0 indicators.
Presolve time = 0.03 sec. (48.44 ticks)
Probing time = 0.00 sec. (3.17 ticks)
Tried aggregator 1 time.
MIP Presolve eliminated 504 rows and 432 columns.
Reduced MIP has 17874 rows, 12399 columns, and 57523 nonzeros.
Reduced MIP has 12399 binaries, 0 generals, 0 SOSs, and 0 indicators.
Presolve time = 0.03 sec. (30.20 ticks)
Probing time = 0.02 sec. (3.08 ticks)
Tried aggregator 1 time.
Detecting symmetries...
Reduced MIP has 17874 rows, 12399 columns, and 57523 nonzeros.
Reduced MIP has 12399 binaries, 0 generals, 0 SOSs, and 0 indicators.
Presolve time = 0.03 sec. (40.38 ticks)
Represolve time = 0.19 sec. (327.73 ticks)
Probing time = 0.02 sec. (3.08 ticks)
Clique table members: 18005.
MIP emphasis: balance optimality and feasibility.
MIP search method: dynamic search.
Parallel mode: deterministic, using up to 16 threads.
Parallel mode: deterministic, using up to 16 threads for concurrent optimization:
 * Starting dual Simplex on 1 thread...
 * Starting Barrier on 14 threads...
 * Starting primal Simplex on 1 thread...
Tried aggregator 1 time.
LP Presolve eliminated 1 rows and 0 columns.
Reduced LP has 18341 rows, 12399 columns, and 59352 nonzeros.
Presolve time = 0.02 sec. (10.90 ticks)
Initializing dual steep norms . . .

Iteration log . . .
Iteration:     1   Dual objective     =             4.000000
Perturbation started.
Iteration:   101   Dual objective     =             4.000000
Iteration:   649   Dual objective     =             4.000132
Iteration:  1208   Dual objective     =             4.000246
Iteration:  1794   Dual objective     =             4.000352
Iteration:  2351   Dual objective     =             4.000404
Iteration:  2905   Dual objective     =             4.000453
Iteration:  3425   Dual objective     =             4.000488
Iteration:  3933   Dual objective     =             4.000519
Iteration:  4405   Dual objective     =             4.000547
Iteration:  4874   Dual objective     =             4.000572
Iteration:  5315   Dual objective     =             4.000591
Iteration:  5643   Dual objective     =             4.000608
Iteration:  5957   Dual objective     =             4.000622
Iteration:  6231   Dual objective     =             4.000633
Iteration:  6481   Dual objective     =             4.000643
Iteration:  6696   Dual objective     =             4.000653
Iteration:  6884   Dual objective     =             4.000662
Iteration:  7065   Dual objective     =             4.000668
Iteration:  7243   Dual objective     =             4.000675
Iteration:  7412   Dual objective     =             4.000681
Removing perturbation.

Primal simplex solved model.

Root relaxation solution time = 0.53 sec. (600.07 ticks)

        Nodes                                         Cuts/
   Node  Left     Objective  IInf  Best Integer    Best Bound    ItCnt     Gap

*     0+    0                            5.0000        4.0000            20.00%
Found incumbent of value 5.000000 after 302.20 sec. (384098.75 ticks)
      0     0        4.0000  5233        5.0000        4.0000   235863   20.00%
      0     0        4.0000  5189        5.0000     Cuts: 114   237597   20.00%
      0     0        4.0000  6159        5.0000    Cuts: 1015   245469   20.00%
      0     0        4.0000  4525        5.0000      Cuts: 74   246682   20.00%
      0     0        4.0000  5546        5.0000     Cuts: 913   252468   20.00%
      0     2        4.0000  3033        5.0000        4.0000   252468   20.00%
Elapsed time = 321.94 sec. (401184.14 ticks, tree = 0.02 MB)
      2     4        4.0000  3301        5.0000        4.0000   255001   20.00%
      8     5        4.0000  3207        5.0000        4.0000   255235   20.00%
     10    10        4.0000  3029        5.0000        4.0000   271820   20.00%
                                                    Cuts: 126                  
     11     3        4.0000  2980        5.0000        4.0000   252512   20.00%
     12     8        4.0000  3208        5.0000        4.0000   255445   20.00%
                                                     Cuts: 14                  
     13     6        4.0000  3345        5.0000        4.0000   255213   20.00%
                                                   Cliques: 7                  
     16    18        4.0000  3539        5.0000        4.0000   280662   20.00%
                                                     Cuts: 11                  
     22    20        4.0000  3281        5.0000        4.0000   283019   20.00%
                                                   Cliques: 4                  
     43    27        4.0000  3290        5.0000        4.0000   283900   20.00%
                                                    Cuts: 109                  
    149    50        4.0000  3369        5.0000        4.0000   289146   20.00%
                                                     Cuts: 32                  
Elapsed time = 344.36 sec. (411247.72 ticks, tree = 0.33 MB)
    234    42        4.0000  3553        5.0000        4.0000   319111   20.00%
                                                  Cliques: 29                  
    355    42        4.0000  3398        5.0000        4.0000   347404   20.00%
                                                     Cuts: 24                  
    498    66        4.0000  3055        5.0000        4.0000   349968   20.00%
    653   204        4.0000  3192        5.0000        4.0000   383009   20.00%
    898   297        4.0000  2916        5.0000        4.0000   404196   20.00%
   1264  1038        4.0000  3176        5.0000        4.0000   495618   20.00%
   1692  1152        4.0000  3145        5.0000        4.0000   525208   20.00%
                                                  Cliques: 24                  
   2180  1243        4.0000  3529        5.0000        4.0000   548490   20.00%
   2647  1838        4.0000  2440        5.0000        4.0000   613137   20.00%
                                                  Cliques: 18                  
   3120  2565        4.0000  2560        5.0000        4.0000   732643   20.00%
Elapsed time = 371.23 sec. (420828.26 ticks, tree = 17.13 MB)
   3571  2800        4.0000  2303        5.0000        4.0000   770681   20.00%
                                                     Cuts: 48                  
   4081  3434        4.0000  1736        5.0000        4.0000   864027   20.00%
                                                     Cuts: 35                  
   4581  3999        4.0000  1682        5.0000        4.0000   959363   20.00%
                                                     Cuts: 39                  

Performing restart 1

Repeating presolve.
Tried aggregator 1 time.
Reduced MIP has 17874 rows, 12399 columns, and 57523 nonzeros.
Reduced MIP has 12399 binaries, 0 generals, 0 SOSs, and 0 indicators.
Presolve time = 0.03 sec. (31.13 ticks)
Tried aggregator 1 time.
Reduced MIP has 17874 rows, 12399 columns, and 57523 nonzeros.
Reduced MIP has 12399 binaries, 0 generals, 0 SOSs, and 0 indicators.
Presolve time = 0.03 sec. (41.56 ticks)
Represolve time = 0.11 sec. (115.52 ticks)
Tried aggregator 1 time.
No LP presolve or aggregator reductions.
Presolve time = 0.00 sec. (9.24 ticks)
Initializing dual steep norms . . .

Iteration log . . .
Iteration:     1   Dual objective     =             4.000000
Perturbation started.
Iteration:   101   Dual objective     =             4.000000
Iteration:   658   Dual objective     =             4.000137
Iteration:  1217   Dual objective     =             4.000254
Iteration:  1804   Dual objective     =             4.000356
Iteration:  2362   Dual objective     =             4.000404
Iteration:  2934   Dual objective     =             4.000452
Iteration:  3475   Dual objective     =             4.000491
Iteration:  3995   Dual objective     =             4.000521
Iteration:  4482   Dual objective     =             4.000548
Iteration:  4932   Dual objective     =             4.000572
Iteration:  5378   Dual objective     =             4.000595
Iteration:  5697   Dual objective     =             4.000612
Iteration:  5984   Dual objective     =             4.000626
Iteration:  6275   Dual objective     =             4.000640
Iteration:  6551   Dual objective     =             4.000654
Iteration:  6792   Dual objective     =             4.000664
Iteration:  7026   Dual objective     =             4.000672
Iteration:  7283   Dual objective     =             4.000683
Iteration:  7494   Dual objective     =             4.000690
Iteration:  7648   Dual objective     =             4.000695
Iteration:  7866   Dual objective     =             4.000701
Iteration:  8010   Dual objective     =             4.000705
Iteration:  8170   Dual objective     =             4.000709
Iteration:  8319   Dual objective     =             4.000713
Iteration:  8463   Dual objective     =             4.000719
Iteration:  8604   Dual objective     =             4.000724
Iteration:  8749   Dual objective     =             4.000727
Iteration:  8887   Dual objective     =             4.000732
Iteration:  9036   Dual objective     =             4.000736
Iteration:  9188   Dual objective     =             4.000739
Iteration:  9325   Dual objective     =             4.000742
Iteration:  9460   Dual objective     =             4.000745
Iteration:  9604   Dual objective     =             4.000748
Iteration:  9747   Dual objective     =             4.000751
Iteration:  9883   Dual objective     =             4.000755
Iteration: 10020   Dual objective     =             4.000757
Iteration: 10161   Dual objective     =             4.000760
Iteration: 10290   Dual objective     =             4.000762
Iteration: 10419   Dual objective     =             4.000765
Iteration: 10546   Dual objective     =             4.000767
Iteration: 10674   Dual objective     =             4.000769
Iteration: 10806   Dual objective     =             4.000771
Iteration: 10937   Dual objective     =             4.000772
Iteration: 11074   Dual objective     =             4.000774
Iteration: 11203   Dual objective     =             4.000777
Iteration: 11331   Dual objective     =             4.000779
Iteration: 11454   Dual objective     =             4.000781
Iteration: 11581   Dual objective     =             4.000782
Iteration: 11718   Dual objective     =             4.000784
Iteration: 11849   Dual objective     =             4.000785
Iteration: 11974   Dual objective     =             4.000787
Iteration: 12102   Dual objective     =             4.000789
Iteration: 12238   Dual objective     =             4.000790
Iteration: 12365   Dual objective     =             4.000794
Iteration: 12494   Dual objective     =             4.000796
Iteration: 12622   Dual objective     =             4.000797
Iteration: 12746   Dual objective     =             4.000798
Iteration: 12869   Dual objective     =             4.000800
Iteration: 12995   Dual objective     =             4.000801
Iteration: 13124   Dual objective     =             4.000802
Iteration: 13253   Dual objective     =             4.000804
Iteration: 13376   Dual objective     =             4.000806
Iteration: 13503   Dual objective     =             4.000807
Iteration: 13634   Dual objective     =             4.000809
Iteration: 13772   Dual objective     =             4.000810
Iteration: 13897   Dual objective     =             4.000812
Iteration: 14021   Dual objective     =             4.000813
Iteration: 14152   Dual objective     =             4.000814
Iteration: 14271   Dual objective     =             4.000816
Iteration: 14398   Dual objective     =             4.000817
Iteration: 14522   Dual objective     =             4.000818
Iteration: 14644   Dual objective     =             4.000819
Iteration: 14777   Dual objective     =             4.000821
Iteration: 14905   Dual objective     =             4.000822
Iteration: 15033   Dual objective     =             4.000823
Iteration: 15165   Dual objective     =             4.000825
Iteration: 15294   Dual objective     =             4.000826
Iteration: 15426   Dual objective     =             4.000828
Iteration: 15558   Dual objective     =             4.000829
Iteration: 15683   Dual objective     =             4.000830
Iteration: 15811   Dual objective     =             4.000832
Iteration: 15937   Dual objective     =             4.000833
Iteration: 16067   Dual objective     =             4.000835
Iteration: 16196   Dual objective     =             4.000836
Iteration: 16322   Dual objective     =             4.000837
Iteration: 16445   Dual objective     =             4.000839
Iteration: 16571   Dual objective     =             4.000840
Iteration: 16698   Dual objective     =             4.000841
Iteration: 16827   Dual objective     =             4.000842
Iteration: 16952   Dual objective     =             4.000843
Iteration: 17077   Dual objective     =             4.000845
Iteration: 17207   Dual objective     =             4.000845
Iteration: 17337   Dual objective     =             4.000846
Iteration: 17463   Dual objective     =             4.000847
Iteration: 17582   Dual objective     =             4.000848
Iteration: 17704   Dual objective     =             4.000849
Iteration: 17835   Dual objective     =             4.000849
Iteration: 17962   Dual objective     =             4.000850
Iteration: 18094   Dual objective     =             4.000851
Elapsed time = 6.70 sec. (10000.03 ticks, 18101 iterations)
Iteration: 18225   Dual objective     =             4.000851
Iteration: 18359   Dual objective     =             4.000853
Iteration: 18482   Dual objective     =             4.000853
Iteration: 18608   Dual objective     =             4.000854
Iteration: 18736   Dual objective     =             4.000855
Iteration: 18860   Dual objective     =             4.000855
Iteration: 18984   Dual objective     =             4.000856
Iteration: 19105   Dual objective     =             4.000856
Iteration: 19228   Dual objective     =             4.000857
Iteration: 19354   Dual objective     =             4.000857
Iteration: 19477   Dual objective     =             4.000858
Iteration: 19613   Dual objective     =             4.000859
Iteration: 19741   Dual objective     =             4.000860
Iteration: 19873   Dual objective     =             4.000860
Iteration: 19999   Dual objective     =             4.000861
Iteration: 20122   Dual objective     =             4.000861
Iteration: 20248   Dual objective     =             4.000863
Iteration: 20376   Dual objective     =             4.000864
Iteration: 20504   Dual objective     =             4.000865
Iteration: 20634   Dual objective     =             4.000865
Iteration: 20760   Dual objective     =             4.000866
Iteration: 20886   Dual objective     =             4.000866
Iteration: 21010   Dual objective     =             4.000866
Iteration: 21139   Dual objective     =             4.000866
Iteration: 21268   Dual objective     =             4.000866
Removing perturbation.
   4705     0        4.0000  6249        5.0000     Cuts: 208  1063463   20.00%
   4705     0        4.0000  6803        5.0000    Cuts: 1343  1073572   20.00%
   4705     0        4.0000  4439        5.0000      Cuts: 78  1075192   20.00%
   4705     0        4.0000  5447        5.0000    Cuts: 1237  1081696   20.00%
   4705     0        4.0000  3956        5.0000      Cuts: 61  1083070   20.00%
   4705     0        4.0000  5082        5.0000     Cuts: 964  1087577   20.00%
   4705     0        4.0000  3183        5.0000      Cuts: 29  1088105   20.00%
   4705     0        4.0000  4637        5.0000     Cuts: 911  1093318   20.00%
*  4705+    0                            4.0000        4.0000             0.00%
Found incumbent of value 4.000000 after 438.36 sec. (481764.47 ticks)
   4705     0  -1.00000e+75     0        4.0000        4.0000  1093318    0.00%
   4705     0        cutoff              4.0000        4.0000  1093318    0.00%

Clique cuts applied:  135
Zero-half cuts applied:  16
Gomory fractional cuts applied:  2

Root node processing (before b&c):
  Real time             =  321.88 sec. (401169.54 ticks)
Parallel b&c, 16 threads:
  Real time             =  116.52 sec. (80602.77 ticks)
  Sync time (average)   =   15.08 sec.
  Wait time (average)   =    0.00 sec.
                          ------------
Total (root+branch&cut) =  438.39 sec. (481772.31 ticks)

--- MIP status (101): integer optimal solution.
--- Cplex Time: 438.39sec (det. 481772.37 ticks)

--- Fixing integer variables and solving final LP...

Version identifier: 20.1.0.1 | 2021-04-07 | 3a818710c
CPXPARAM_Advance                                 2
CPXPARAM_Threads                                 16
CPXPARAM_Parallel                                1
CPXPARAM_MIP_Display                             4
CPXPARAM_MIP_Pool_Capacity                       0
CPXPARAM_MIP_Tolerances_AbsMIPGap                0
CPXPARAM_MIP_Tolerances_MIPGap                   0
Parallel mode: deterministic, using up to 16 threads for concurrent optimization:
 * Starting dual Simplex on 1 thread...
 * Starting Barrier on 14 threads...
 * Starting primal Simplex on 1 thread...
Tried aggregator 1 time.
LP Presolve eliminated 60089 rows and 19333 columns.
All rows and columns eliminated.
Presolve time = 0.02 sec. (22.55 ticks)

Dual simplex solved model.


--- Fixed MIP status (1): optimal.
--- Cplex Time: 0.11sec (det. 42.09 ticks)


Proven optimal solution
MIP Solution:            4.000000    (1093318 iterations, 4705 nodes)
Final Solve:             4.000000    (0 iterations)

Best possible:           4.000000
Absolute gap:            0.000000
Relative gap:            0.000000

--- Reading solution for model color
--- Untitled_2.gms(6266) 31 Mb  438 secs
--- Executing after solve: elapsed 0:07:18.887
--- Untitled_2.gms(6273) 31 Mb
--- GDX File C:\projects\OptimizationModels\GraphColoring\x.gdx
*** Status: Normal completion
--- Job Untitled_2.gms Stop 01/23/22 16:23:33 elapsed 0:07:18.903
